Argumentos: 
./solver.release -i 27 -t 86400 -a 7 -h 86400 -w Testes/R2-i27 -m R2_modeloCom2345.mod -o R2_modeloCom2345.mod 
Seed: 1623016528
hidden-TXT/Sc-n110w4.txt
hidden-TXT/H0-n110w4-2.txt
hidden-TXT/WD-n110w4-0.txt hidden-TXT/WD-n110w4-2.txt hidden-TXT/WD-n110w4-7.txt hidden-TXT/WD-n110w4-0.txt 
Reading model section from R2_modeloCom2345.mod...
367 lines were read
Reading data section from Testes/R2-i27/27.dat...
19773 lines were read
Generating obj...
Generating H1turnoDia...
Generating H2coberturaMinima...
Generating H3AsucessaoTurnos...
Generating H3BsucessaoTurnos...
Generating H4qualificacao...
Generating S1coberturaOtima...
Generating S2d...
Generating S2dHist...
Generating S2b...
Generating S2bHist...
Generating auxS5...
Generating S6a...
Generating S6b...
Generating auxS7...
Generating S7...
Model has been successfully generated
Writing problem data to `Testes/R2-i27/27.lp'...
513962 lines were written
CPX0000  Tried aggregator 2 times.
CPX0000  MIP Presolve eliminated 21912 rows and 78805 columns.
CPX0000  MIP Presolve modified 5930 coefficients.
CPX0000  Aggregator did 13 substitutions.
CPX0000  Reduced MIP has 23442 rows, 34009 columns, and 300169 nonzeros.
CPX0000  Reduced MIP has 33366 binaries, 643 generals, 0 SOSs, and 0 indicators.
CPX0000  Presolve time = 0.56 sec. (330.80 ticks)
CPX0000  Found incumbent of value 638975.000000 after 1.25 sec. (927.94 ticks)
[1m[30m[ZEN] [0m00:00:01 [1m[34m 638975.00[1m[32m  100.00%
[0mCPX0000  Probing time = 0.03 sec. (11.12 ticks)
CPX0000  Tried aggregator 1 time.
CPX0000  Reduced MIP has 23442 rows, 34009 columns, and 300169 nonzeros.
CPX0000  Reduced MIP has 33366 binaries, 643 generals, 0 SOSs, and 0 indicators.
CPX0000  Presolve time = 0.16 sec. (110.19 ticks)
CPX0000  Probing time = 0.04 sec. (10.51 ticks)
CPX0000  Clique table members: 14944.
CPX0000  MIP emphasis: balance optimality and feasibility.
CPX0000  MIP search method: dynamic search.
CPX0000  Parallel mode: none, using 1 thread.
CPX0000  Root relaxation solution time = 3.68 sec. (1768.03 ticks)
CPX0000
CPX0000          Nodes                                         Cuts/
CPX0000     Node  Left     Objective  IInf  Best Integer    Best Bound    ItCnt     Gap
CPX0000
CPX0000  *     0+    0                       638975.0000        0.0000     8827  100.00%
CPX0000        0     0      890.0000   926   638975.0000      890.0000     8827   99.86%
CPX0000        0     0      994.0000  1442   638975.0000    Cuts: 1356    13614   99.84%
CPX0000        0     0     1069.1667  1578   638975.0000     Cuts: 795    16973   99.83%
CPX0000        0     0     1075.1190  1630   638975.0000     Cuts: 506    22102   99.83%
CPX0000  *     0+    0                       190190.0000     1075.1190    22102   99.43%
[1m[30m[ZEN] [0m00:00:27 [1m[34m 190190.00[1m[32m   99.43%
[0mCPX0000        0     0     1077.5000  1653   190190.0000     Cuts: 416    25987   99.43%
CPX0000        0     0     1078.3333  1650   190190.0000     Cuts: 339    30333   99.43%
CPX0000        0     0     1078.3333  1672   190190.0000     Cuts: 379    35598   99.43%
CPX0000        0     0     1078.3333  1160   190190.0000     Cuts: 112    36922   99.43%
CPX0000        0     0     1078.3333  1314   190190.0000     Cuts: 266    38374   99.43%
CPX0000  *     0+    0                         1590.0000     1078.3333    38374   32.18%
CPX0000  *     0+    0                         1370.0000     1078.3333    38374   21.29%
CPX0000  *     0+    0                         1320.0000     1078.3333    38374   18.31%
[1m[30m[ZEN] [0m00:01:03 [1m[34m   1320.00[1m[32m   18.31%
[0mCPX0000        0     2     1078.3333   816     1320.0000     1081.6667    38374   18.06%
CPX0000  Elapsed time = 64.05 sec. (31463.70 ticks, tree = 0.00 MB
CPX0000        1     3     1088.3333   717     1320.0000     1081.6667    43514   18.06%
CPX0000        3     5     1088.3333   799     1320.0000     1088.3333    44296   17.55%
CPX0000        4     6     1093.3333   927     1320.0000     1088.3333    46262   17.55%
CPX0000        6     8     1088.3333   878     1320.0000     1091.6667    49019   17.30%
CPX0000        7     9     1098.3333   907     1320.0000     1091.6667    49989   17.30%
CPX0000        8    10     1093.3333   745     1320.0000     1091.6667    50831   17.30%
CPX0000       10    12     1098.3333   808     1320.0000     1091.6667    52308   17.30%
CPX0000       11    13     1103.3333   762     1320.0000     1091.6667    53044   17.30%
CPX0000       14    16     1108.3333   760     1320.0000     1091.6667    53480   17.30%
CPX0000       30    32     1141.6667   568     1320.0000     1091.6667    55764   17.30%
CPX0000  Elapsed time = 76.49 sec. (38253.11 ticks, tree = 5.58 MB
CPX0000       60    62     1180.5556   391     1320.0000     1091.6667    58596   17.30%
CPX0000       80    82     1220.0000   109     1320.0000     1091.6667    62513   17.30%
CPX0000      120   122     1220.0000   188     1320.0000     1091.6667    65126   17.30%
CPX0000      166   168     1220.0000   137     1320.0000     1091.6667    68261   17.30%
CPX0000      206   208     1220.0000    45     1320.0000     1091.6667    71122   17.30%
CPX0000      220   222     1220.0000   185     1320.0000     1091.6667    73518   17.30%
CPX0000      242   244     1220.0000   199     1320.0000     1091.6667    77169   17.30%
CPX0000      266   268     1220.0000    43     1320.0000     1091.6667    80516   17.30%
CPX0000      285   287     1220.0000   115     1320.0000     1091.6667    84498   17.30%
CPX0000      310   312     1220.0000    83     1320.0000     1091.6667    88019   17.30%
CPX0000  Elapsed time = 95.81 sec. (48358.55 ticks, tree = 90.78 MB
CPX0000      333   335     1220.0000   264     1320.0000     1091.6667    91751   17.30%
CPX0000      358   360     1250.0000    19     1320.0000     1091.6667    95494   17.30%
CPX0000      371   373     1250.0000    13     1320.0000     1091.6667    98664   17.30%
CPX0000      388   390     1250.0000    27     1320.0000     1091.6667   102680   17.30%
CPX0000      405   407     1250.0000   165     1320.0000     1091.6667   105844   17.30%
CPX0000      423   425     1256.6667   217     1320.0000     1091.6667   111046   17.30%
CPX0000      467   469     1290.0000    30     1320.0000     1091.6667   114577   17.30%
CPX0000  *   470+  313                         1220.0000     1180.0000   134551    3.28%
CPX0000  *   470     0      integral     0     1190.0000     1190.0000   147312    0.00%
CPX0000
CPX0000  GUB cover cuts applied:  566
CPX0000  Clique cuts applied:  1006
CPX0000  Cover cuts applied:  54
CPX0000  Mixed integer rounding cuts applied:  146
CPX0000  Zero-half cuts applied:  554
CPX0000  Lift and project cuts applied:  16
CPX0000  Gomory fractional cuts applied:  100
CPX0000
CPX0000  Root node processing (before b&c):
CPX0000    Real time             =   63.97 sec. (31405.29 ticks)
CPX0000  Sequential b&c:
CPX0000    Real time             =   98.58 sec. (54524.15 ticks)
CPX0000                            ------------
CPX0000  Total (root+branch&cut) =  162.56 sec. (85929.43 ticks)
[1m[30m[ZEN] [0m00:02:42 [1m[34m   1190.00[1m[32m    0.00%
[0mH2 understaffing: 0
H3 shiftTypeSuccessions: 0
S1 optimalCoverage: 30
S2a consecutiveShift: 17955 = (1197,0 )
S2b consecutiveWorkingDays: 24690 = ( 823,0 )
S3 consecutiveDaysOff: 16590 = ( 553,0 )
S4 preferences: 120
S5 completeWeekend: 0
S6 totalAssignments: 1040
S7 totalWorkingWeekeends: 0
 

Cost Solution: 60425

       |M|T|W|T|F|S|S| |M|T|W|T|F|S|S| |M|T|W|T|F|S|S| |M|T|W|T|F|S|S|
------------------------------------------------------------------------
HN_0   |-|D|-|N|-|E|D| |D|-|-|-|D|-|-| |N|N|-|E|L|N|N| |N|-|-|E|L|-|-|
HN_1   |L|-|-|-|-|-|D| |-|-|-|-|N|-|-| |-|-|-|N|-|-|-| |-|-|L|-|-|-|-|
HN_2   |D|-|-|-|-|-|-| |L|-|N|-|-|-|L| |-|-|-|-|-|-|-| |E|-|-|-|-|-|-|
HN_3   |N|-|E|D|D|-|-| |L|N|N|N|N|-|-| |E|E|-|L|N|N|N| |N|-|D|E|D|E|D|
HN_4   |N|-|-|-|-|-|-| |-|E|D|-|-|-|-| |D|-|-|-|D|-|-| |L|L|N|-|E|L|N|
HN_5   |E|-|L|-|N|N|N| |-|-|L|-|L|-|-| |D|-|-|-|D|-|-| |-|-|-|E|L|-|-|
HN_6   |D|E|-|D|-|-|-| |E|L|L|-|E|-|-| |L|L|L|N|-|-|-| |-|D|-|N|-|L|L|
HN_7   |N|-|L|L|L|-|-| |N|-|E|-|E|E|E| |D|N|-|E|-|-|-| |N|N|-|L|-|-|-|
HN_8   |N|-|-|E|-|-|-| |L|-|-|-|-|L|L| |-|D|E|L|L|L|L| |-|L|L|L|L|-|-|
HN_9   |-|L|-|N|-|-|-| |E|-|E|D|-|-|-| |-|-|-|-|N|-|-| |D|D|-|-|D|D|E|
HN_10  |E|E|-|E|D|E|D| |D|L|-|L|-|-|-| |L|-|-|D|E|D|E| |-|-|D|-|-|-|-|
HN_11  |-|-|L|-|-|-|-| |-|-|E|E|-|-|E| |-|E|E|E|E|-|-| |E|E|-|D|D|-|-|
HN_12  |-|N|N|-|-|-|-| |N|N|-|-|-|-|-| |N|-|D|-|-|D|E| |N|-|E|N|-|-|-|
HN_13  |D|-|D|-|L|L|L| |-|N|-|-|D|E|D| |L|N|-|E|-|-|-| |N|-|-|D|N|-|-|
HN_14  |-|L|-|L|-|N|N| |-|E|D|E|D|-|-| |-|-|-|L|-|-|-| |-|E|-|D|-|-|-|
HN_15  |-|N|-|E|E|E|E| |-|L|N|-|-|-|-| |N|-|D|E|D|-|-| |-|N|-|-|E|N|N|
HN_16  |E|E|D|L|N|-|-| |D|L|L|L|L|-|-| |D|D|D|D|-|D|D| |D|E|-|L|L|N|N|
HN_17  |N|-|E|-|L|-|-| |-|E|N|-|-|D|D| |E|L|-|-|-|-|-| |-|E|E|-|N|-|-|
HN_18  |-|D|E|D|D|-|-| |D|E|D|D|E|-|-| |E|L|L|-|L|L|L| |L|L|-|D|D|E|D|
HN_19  |-|D|D|E|D|-|-| |-|-|L|L|-|N|N| |-|-|E|E|E|E|L| |-|L|L|-|-|-|-|
NU_20  |-|-|-|E|-|-|-| |-|-|-|D|N|-|-| |E|D|D|D|D|-|-| |L|-|L|-|L|-|-|
NU_21  |-|D|E|E|N|-|-| |D|E|D|D|E|-|-| |N|N|N|N|-|N|N| |N|-|D|E|L|L|L|
NU_22  |D|D|E|E|D|-|-| |E|D|D|D|E|-|-| |D|D|N|-|E|D|E| |L|N|-|L|N|N|N|
NU_23  |-|D|L|-|-|-|-| |-|-|D|D|L|L|L| |-|N|-|-|-|-|-| |D|L|N|N|-|-|-|
NU_24  |-|E|-|L|-|-|-| |-|E|L|-|D|N|N| |-|D|D|-|E|-|-| |N|-|-|-|E|-|-|
NU_25  |-|-|-|-|L|N|N| |-|L|-|N|-|-|-| |-|E|E|N|-|-|-| |D|D|-|-|L|-|-|
NU_26  |-|N|-|-|-|-|-| |D|-|-|-|-|-|E| |-|-|D|L|-|-|-| |-|L|-|L|-|-|-|
NU_27  |L|-|-|-|D|-|-| |N|N|-|N|-|-|D| |-|-|-|-|-|-|-| |E|-|-|-|-|-|-|
NU_28  |-|L|L|N|-|-|-| |N|-|N|-|-|-|-| |-|-|N|-|N|-|-| |L|-|-|-|L|L|L|
NU_29  |-|E|D|N|-|-|-| |E|D|D|E|E|E|E| |-|-|L|-|E|E|E| |-|-|E|L|-|-|-|
NU_30  |E|-|D|L|L|-|-| |N|-|D|D|D|D|E| |-|L|N|-|N|-|-| |E|-|L|L|-|-|-|
NU_31  |-|L|-|-|-|E|E| |E|E|-|E|N|-|-| |N|-|D|-|-|-|-| |E|L|N|-|-|-|-|
NU_32  |N|N|N|-|N|N|N| |N|N|-|D|E|E|D| |-|D|D|L|N|-|-| |E|D|D|D|D|-|-|
NU_33  |-|L|N|N|N|-|-| |E|D|E|E|D|-|-| |E|D|E|E|-|D|D| |D|D|-|D|E|E|D|
NU_34  |-|L|-|E|E|-|-| |-|N|-|L|-|-|-| |-|-|-|-|L|-|-| |-|D|D|L|L|-|D|
NU_35  |D|-|L|N|-|L|L| |N|N|N|N|-|N|N| |N|-|N|-|L|-|-| |-|-|L|-|-|-|-|
NU_36  |N|N|-|-|-|L|L| |-|L|-|-|N|-|-| |N|N|-|E|-|-|-| |D|D|-|-|-|-|-|
NU_37  |E|-|-|D|-|-|-| |N|-|N|N|-|N|N| |-|-|E|-|D|-|-| |-|-|-|N|N|-|-|
NU_38  |L|L|-|E|E|D|E| |D|-|E|L|L|L|L| |-|E|E|N|N|-|-| |E|D|E|E|E|-|-|
NU_39  |-|-|E|-|E|D|D| |N|-|-|D|-|-|-| |E|N|N|N|-|-|-| |-|N|N|-|D|E|E|
CT_40  |-|-|-|N|-|-|-| |-|-|-|-|D|-|-| |-|D|-|-|-|N|-| |-|D|L|-|-|-|-|
CT_41  |-|-|E|-|E|-|-| |-|-|-|N|-|-|-| |-|-|E|-|-|-|-| |-|E|-|-|-|-|-|
CT_42  |E|D|-|D|E|E|E| |D|-|D|D|L|-|-| |D|D|E|E|E|-|-| |N|N|N|-|E|L|L|
CT_43  |-|-|D|-|-|-|-| |N|-|-|-|-|-|-| |L|-|L|-|-|-|D| |-|-|-|-|E|-|-|
CT_44  |-|-|L|-|N|-|-| |N|-|-|N|-|D|L| |-|-|D|L|L|-|-| |N|-|-|E|-|-|-|
CT_45  |L|-|-|-|E|-|-| |L|-|-|-|E|L|L| |L|L|-|D|D|-|-| |N|N|N|N|N|-|-|
CT_46  |-|-|-|L|L|-|-| |D|-|L|-|E|D|D| |L|-|D|-|-|-|-| |-|-|-|D|L|-|-|
CT_47  |L|-|D|D|E|L|L| |-|L|L|N|N|-|-| |E|D|L|L|L|-|-| |E|-|E|D|E|N|N|
CT_48  |-|N|-|-|L|N|N| |-|D|D|-|-|-|-| |L|-|N|-|-|-|-| |L|-|-|L|N|-|-|
CT_49  |E|L|L|L|L|-|-| |D|D|E|L|L|-|-| |L|L|L|-|D|L|L| |L|N|-|L|L|L|N|
CT_50  |L|L|-|-|E|-|-| |-|D|L|L|-|-|-| |E|D|E|N|-|-|-| |L|-|D|L|-|D|D|
CT_51  |L|-|L|-|E|-|-| |-|-|-|L|-|-|-| |N|-|D|-|-|N|N| |-|L|N|-|L|-|-|
CT_52  |-|L|-|D|L|L|N| |-|N|N|-|L|-|-| |D|L|-|D|D|-|-| |-|N|-|D|E|-|-|
CT_53  |L|N|-|-|E|N|N| |-|E|L|-|E|-|-| |-|-|-|L|-|-|-| |-|-|N|-|E|-|-|
CT_54  |N|-|N|N|N|-|-| |E|D|E|L|L|-|-| |D|E|N|N|-|D|D| |D|L|L|-|N|N|N|
CT_55  |-|-|D|D|-|-|D| |-|-|-|L|-|-|-| |-|-|-|L|-|-|-| |D|-|D|N|-|-|-|
CT_56  |-|D|N|-|-|-|-| |-|-|-|L|-|-|E| |-|E|-|-|L|-|-| |-|N|-|-|-|-|-|
CT_57  |N|N|N|-|L|-|-| |-|-|N|-|L|-|-| |-|E|-|-|L|L|L| |-|-|D|-|-|-|-|
CT_58  |N|N|-|D|-|-|-| |-|-|N|-|-|N|-| |-|N|-|-|-|-|-| |N|-|D|-|-|-|-|
CT_59  |L|L|N|-|-|D|E| |-|-|N|N|N|-|-| |-|E|L|N|-|-|-| |D|N|N|-|D|-|-|
CT_60  |-|E|N|-|-|-|-| |-|D|-|E|N|-|-| |D|L|-|L|-|-|-| |-|E|D|E|-|-|-|
CT_61  |N|-|-|-|-|-|-| |E|-|-|-|D|-|-| |-|-|-|-|L|-|E| |D|E|-|-|-|-|-|
CT_62  |D|E|E|D|L|-|-| |D|L|L|L|N|-|-| |D|E|E|-|E|L|L| |L|L|-|D|E|L|L|
CT_63  |D|E|N|-|E|D|L| |-|L|-|E|-|L|L| |-|-|E|-|E|-|-| |-|L|-|E|L|-|-|
CT_64  |-|-|E|L|-|E|D| |-|-|E|-|L|-|-| |N|N|N|-|E|-|-| |-|L|-|-|-|-|-|
CT_65  |E|E|D|L|L|-|-| |E|D|E|N|-|N|N| |N|N|-|D|L|-|-| |D|E|L|N|-|E|E|
CT_66  |-|-|-|-|D|-|-| |L|N|N|-|-|E|D| |E|L|L|-|-|E|D| |-|E|E|E|E|-|-|
CT_67  |D|-|-|N|-|-|E| |-|E|-|-|-|-|-| |N|-|-|-|-|-|-| |-|D|-|-|-|-|-|
CT_68  |D|-|-|L|-|-|-| |L|-|-|E|D|-|-| |N|N|-|E|D|-|-| |-|-|-|E|N|-|-|
CT_69  |D|E|L|L|-|-|-| |L|-|-|-|-|D|D| |-|N|-|L|N|-|-| |-|D|-|-|-|-|-|
CT_70  |D|D|L|-|L|L|L| |-|-|D|D|D|E|D| |E|E|-|-|N|-|-| |-|-|D|-|-|-|-|
CT_71  |E|-|D|-|-|-|-| |-|-|L|-|N|-|-| |-|-|L|-|-|-|-| |-|-|-|N|-|-|D|
CT_72  |-|L|-|-|N|-|D| |-|-|E|-|L|-|-| |-|-|-|L|-|-|-| |L|-|E|N|-|-|-|
CT_73  |D|-|D|-|-|-|-| |-|-|-|D|-|-|-| |-|-|D|-|-|-|-| |-|-|L|-|-|-|D|
CT_74  |-|-|-|E|-|-|-| |-|-|-|-|D|-|-| |-|-|E|L|-|-|-| |-|-|-|-|D|-|E|
CT_75  |-|D|-|D|-|-|-| |-|L|-|N|-|-|-| |-|N|-|E|D|E|D| |E|E|L|-|N|N|N|
CT_76  |N|N|-|N|N|-|-| |D|E|E|E|E|-|-| |E|E|-|E|D|D|E| |D|-|D|D|D|D|L|
CT_77  |E|D|D|E|D|-|-| |L|N|N|N|N|-|-| |E|D|-|D|D|N|N| |N|-|E|E|D|D|E|
CT_78  |N|N|N|-|D|L|N| |-|E|D|E|D|-|-| |L|L|N|N|N|-|-| |N|N|N|N|-|E|E|
CT_79  |L|-|-|-|D|-|-| |-|N|-|-|-|-|-| |D|-|-|D|E|-|E| |E|-|E|-|-|-|-|
TR_80  |L|-|E|-|L|-|-| |N|-|E|-|-|-|-| |L|L|L|-|E|N|N| |-|E|N|N|N|-|-|
TR_81  |L|-|N|-|-|-|-| |D|E|E|E|D|-|-| |-|-|N|-|-|-|-| |E|-|D|-|E|-|-|
TR_82  |E|-|-|N|-|-|-| |-|-|D|-|D|N|N| |N|-|-|D|E|-|-| |-|L|-|-|D|-|-|
TR_83  |-|D|D|-|E|E|N| |N|-|-|N|-|-|-| |L|-|D|D|-|-|-| |D|E|N|N|N|-|-|
TR_84  |E|E|N|-|L|-|-| |-|E|L|-|-|-|-| |E|D|D|E|L|-|-| |N|-|-|-|D|L|N|
TR_85  |-|-|E|-|-|-|-| |-|-|L|-|N|-|-| |-|-|-|-|-|L|-| |-|N|-|-|-|-|-|
TR_86  |L|-|-|L|-|-|-| |-|D|-|D|E|-|-| |-|-|E|E|E|-|-| |L|-|N|-|L|-|-|
TR_87  |L|-|E|N|-|-|-| |N|N|N|-|E|E|D| |-|-|D|L|L|-|-| |E|-|E|-|L|-|-|
TR_88  |-|N|-|L|-|L|L| |N|-|L|L|-|E|E| |-|E|L|-|-|-|-| |D|E|E|D|-|-|-|
TR_89  |D|L|-|L|N|-|-| |E|E|E|N|N|-|-| |D|D|-|E|D|E|N| |N|-|D|E|N|N|N|
TR_90  |-|N|-|-|N|-|-| |-|N|-|-|-|-|-| |E|E|D|-|D|E|E| |-|D|-|-|D|-|-|
TR_91  |N|-|D|E|E|-|-| |L|L|L|L|N|-|-| |N|N|N|-|D|D|D| |D|-|E|D|E|E|E|
TR_92  |-|-|-|E|-|-|-| |E|-|-|-|-|E|-| |L|-|-|-|-|-|-| |E|-|-|-|-|-|-|
TR_93  |N|-|D|-|-|-|-| |L|L|N|-|D|-|-| |E|D|L|-|N|-|-| |-|-|-|D|-|-|-|
TR_94  |D|L|L|-|D|-|-| |-|-|-|N|-|N|N| |-|L|N|-|-|-|-| |-|D|-|L|-|-|-|
TR_95  |-|N|-|-|-|-|-| |-|N|-|-|-|-|-| |-|D|-|-|-|-|-| |-|-|E|-|-|D|-|
TR_96  |E|N|-|D|E|-|-| |-|-|D|D|-|-|-| |L|N|-|D|L|-|-| |-|N|N|N|-|E|D|
TR_97  |N|N|N|-|E|D|E| |D|L|-|E|L|L|L| |N|-|E|N|N|-|-| |D|D|D|E|D|-|-|
TR_98  |N|-|-|L|-|L|L| |L|-|D|E|E|D|E| |-|-|E|D|L|-|-| |-|E|-|L|-|-|-|
TR_99  |D|E|-|D|D|L|L| |L|L|-|-|D|D|D| |-|L|-|-|D|-|-| |N|-|-|N|-|-|-|
TR_100 |E|D|E|E|N|-|-| |E|D|E|D|L|-|-| |E|D|L|L|-|E|D| |L|L|L|-|L|L|L|
TR_101 |E|D|E|D|D|-|-| |D|D|D|E|N|-|-| |D|E|E|-|D|L|L| |L|N|-|E|D|L|L|
TR_102 |-|-|-|-|L|-|-| |-|-|E|-|-|-|-| |-|-|D|-|-|D|-| |-|N|-|-|-|-|-|
TR_103 |-|L|-|-|-|N|N| |-|L|-|E|-|-|-| |N|-|-|N|-|-|-| |E|E|D|-|E|-|-|
TR_104 |D|E|-|E|D|E|D| |D|-|D|L|L|L|L| |-|L|N|N|N|-|-| |L|L|L|L|N|-|-|
TR_105 |-|E|D|D|D|D|E| |-|D|N|-|N|-|-| |-|L|-|N|N|-|-| |D|-|E|E|-|-|-|
TR_106 |-|E|N|N|N|-|-| |L|N|N|N|N|-|-| |D|E|-|E|E|N|N| |N|-|E|E|E|D|E|
TR_107 |D|L|L|N|-|-|-| |-|L|L|N|-|-|-| |N|N|-|L|-|-|-| |-|L|L|L|-|D|L|
TR_108 |-|-|L|-|-|-|-| |-|E|-|-|-|-|-| |-|E|-|-|-|D|-| |-|N|-|-|-|-|-|
TR_109 |-|D|E|E|E|-|-| |N|-|-|D|E|-|-| |D|N|-|L|L|-|-| |E|D|-|D|E|-|-|


Hard constraint violations
--------------------------

Minimal coverage constraints: 0
Required skill constraints: 0
Illegal shift type succession constraints: 0
Single assignment per day: 0


Cost per constraint type
------------------------

Total assignment constraints: 1040
Consecutive constraints: 42645
Non working days constraints: 16590
Preferences: 120
Max working weekend: 0
Complete weekends: 0
Optimal coverage constraints: 30

------------------------

Total cost: 60425
